unsat
(:cnf-encoding-aux-vars   152
 :eliminated-applications 1
 :eliminated-vars         146
 :max-memory              19.31
 :memory                  18.65
 :nlsat-conflicts         2
 :nlsat-decisions         3
 :nlsat-propagations      8
 :num-allocs              299833
 :rlimit-count            90636
 :time                    0.02
 :total-time              0.04)
